/*********************************************
 * OPL 12.6.0.0 Data
 * Author: Adrian Rodriguez Bazaga, Pau Rodriguez Esmerats
 * Creation Date: 06/12/2017 at 21:27:05
 *********************************************/

nNurses=132;
maxConsec=2;
maxPresence=7;
maxHours=5;
minHours=1;
hours=24;
demand= [20 27 52 41 27 52 41 30 41 24 1 4 4 4 5 1 4 1 4 0 17 32 16 28  ];
